
Log started (V11.0.0) Wed Apr 16 12:10:39 2008

Tried aggregator 1 time.
Reduced MIP has 150 rows, 5001 columns, and 10050 nonzeros.
Presolve time =    0.05 sec.
Clique table members: 100.
MIP emphasis: balance optimality and feasibility.
MIP search method: dynamic search.
Parallel mode: none, using 1 thread.
Root relaxation solution time =    0.12 sec.

        Nodes                                         Cuts/
   Node  Left     Objective  IInf  Best Integer     Best Node    ItCnt     Gap

*     0+    0                         5116.0000       23.0440      748   99.55%
*     0+    0                           34.0000       23.0440      748   32.22%
      0     0       24.0000    77       34.0000      Fract: 4      759   29.41%
*     0+    0                           33.0000       24.0000      759   27.27%
*     0+    0                           32.0000       24.0000      759   25.00%
*     0+    0                           31.0000       24.0000      759   22.58%

Repeating presolve.
Tried aggregator 1 time.
MIP Presolve eliminated 0 rows and 3808 columns.
MIP Presolve modified 189 coefficients.
Reduced MIP has 150 rows, 1193 columns, and 2434 nonzeros.
Tried aggregator 1 time.
Represolve time =    0.05 sec.
Clique table members: 354.
MIP emphasis: balance optimality and feasibility.
MIP search method: dynamic search.
Parallel mode: none, using 1 thread.
Root relaxation solution time =    0.02 sec.

        Nodes                                         Cuts/
   Node  Left     Objective  IInf  Best Integer     Best Node    ItCnt     Gap

      0     0       24.0000    84       31.0000       24.0000      418   22.58%
      0     2       24.0000    84       31.0000       24.0000      418   22.58%
    100    98       26.0000    70       31.0000       24.0000     1643   22.58%
    200   178       24.0000   101       31.0000       24.0000     3817   22.58%
*   240+  199                           30.0000       24.0000     4282   20.00%
    300   256       27.0000    70       30.0000       24.0000     5608   20.00%
    400   331       29.0000    48       30.0000       24.0000     7726   20.00%
    500   407       28.0000    41       30.0000       24.0000    10425   20.00%

Cover cuts applied:  60
Mixed integer rounding cuts applied:  13

Solution pool: 6 solutions saved.

MIP - Integer optimal solution:  Objective = 3.0000000000e+001
Solution time =    3.59 sec.  Iterations = 13600  Nodes = 534 (423)


Incumbent solution
Variable Name           Solution Value
Cmax                         30.000000
X_1_30                        1.000000
X_2_35                        1.000000
X_3_16                        1.000000
X_4_29                        1.000000
X_5_17                        1.000000
X_6_25                        1.000000
X_7_27                        1.000000
X_8_13                        1.000000
X_9_24                        1.000000
X_10_46                       1.000000
X_11_31                       1.000000
X_12_18                       1.000000
X_13_10                       1.000000
X_14_42                       1.000000
X_15_8                        1.000000
X_16_26                       1.000000
X_17_44                       1.000000
X_18_7                        1.000000
X_19_43                       1.000000
X_20_5                        1.000000
X_21_10                       1.000000
X_22_38                       1.000000
X_23_47                       1.000000
X_24_38                       1.000000
X_25_25                       1.000000
X_26_11                       1.000000
X_27_1                        1.000000
X_28_37                       1.000000
X_29_23                       1.000000
X_30_5                        1.000000
X_31_46                       1.000000
X_32_12                       1.000000
X_33_22                       1.000000
X_34_8                        1.000000
X_35_35                       1.000000
X_36_19                       1.000000
X_37_45                       1.000000
X_38_41                       1.000000
X_39_32                       1.000000
X_40_3                        1.000000
X_41_2                        1.000000
X_42_36                       1.000000
X_43_11                       1.000000
X_44_28                       1.000000
X_45_28                       1.000000
X_46_47                       1.000000
X_47_48                       1.000000
X_48_33                       1.000000
X_49_9                        1.000000
X_50_17                       1.000000
X_51_50                       1.000000
X_52_2                        1.000000
X_53_7                        1.000000
X_54_6                        1.000000
X_55_6                        1.000000
X_56_24                       1.000000
X_57_13                       1.000000
X_58_43                       1.000000
X_59_32                       1.000000
X_60_44                       1.000000
X_61_20                       1.000000
X_62_23                       1.000000
X_63_48                       1.000000
X_64_39                       1.000000
X_65_1                        1.000000
X_66_15                       1.000000
X_67_50                       1.000000
X_68_37                       1.000000
X_69_14                       1.000000
X_70_40                       1.000000
X_71_9                        1.000000
X_72_14                       1.000000
X_73_22                       1.000000
X_74_30                       1.000000
X_75_49                       1.000000
X_76_12                       1.000000
X_77_42                       1.000000
X_78_40                       1.000000
X_79_4                        1.000000
X_80_39                       1.000000
X_81_31                       1.000000
X_82_49                       1.000000
X_83_21                       1.000000
X_84_26                       1.000000
X_85_34                       1.000000
X_86_29                       1.000000
X_87_21                       1.000000
X_88_43                       1.000000
X_89_3                        1.000000
X_90_18                       1.000000
X_91_35                       1.000000
X_92_15                       1.000000
X_93_19                       1.000000
X_94_41                       1.000000
X_95_27                       1.000000
X_96_16                       1.000000
X_97_34                       1.000000
X_98_33                       1.000000
X_99_4                        1.000000
X_100_20                      1.000000
All other variables in the range 1-5001 are 0.
